(set-option :produce-models true)
(set-logic QF_UF)
(declare-fun p68() Bool)
(declare-fun p96() Bool)
(declare-fun p67() Bool)
(declare-fun p19() Bool)
(declare-fun p84() Bool)
(declare-fun p53() Bool)
(declare-fun p31() Bool)
(declare-fun p89() Bool)
(declare-fun p113() Bool)
(declare-fun p11() Bool)
(declare-fun p69() Bool)
(declare-fun p23() Bool)
(declare-fun p98() Bool)
(declare-fun p15() Bool)
(declare-fun p42() Bool)
(declare-fun p77() Bool)
(declare-fun p92() Bool)
(declare-fun p104() Bool)
(declare-fun p108() Bool)
(declare-fun p3() Bool)
(declare-fun p118() Bool)
(declare-fun p5() Bool)
(declare-fun p10() Bool)
(declare-fun p64() Bool)
(declare-fun p18() Bool)
(declare-fun p100() Bool)
(declare-fun p72() Bool)
(declare-fun p44() Bool)
(declare-fun p20() Bool)
(declare-fun p101() Bool)
(declare-fun p55() Bool)
(declare-fun p93() Bool)
(declare-fun p63() Bool)
(declare-fun p117() Bool)
(declare-fun p95() Bool)
(declare-fun p22() Bool)
(declare-fun p1() Bool)
(declare-fun p59() Bool)
(declare-fun p103() Bool)
(declare-fun p7() Bool)
(declare-fun p21() Bool)
(declare-fun p17() Bool)
(declare-fun p75() Bool)
(declare-fun p80() Bool)
(declare-fun p86() Bool)
(declare-fun p70() Bool)
(declare-fun p28() Bool)
(declare-fun p116() Bool)
(declare-fun p54() Bool)
(declare-fun p56() Bool)
(declare-fun p87() Bool)
(declare-fun p91() Bool)
(declare-fun p38() Bool)
(declare-fun p39() Bool)
(declare-fun p110() Bool)
(declare-fun p61() Bool)
(declare-fun p76() Bool)
(declare-fun p79() Bool)
(declare-fun p74() Bool)
(declare-fun p102() Bool)
(declare-fun p82() Bool)
(declare-fun p45() Bool)
(declare-fun p48() Bool)
(declare-fun p111() Bool)
(declare-fun p114() Bool)
(declare-fun p88() Bool)
(declare-fun p73() Bool)
(declare-fun p34() Bool)
(declare-fun p60() Bool)
(declare-fun p109() Bool)
(declare-fun p29() Bool)
(declare-fun p66() Bool)
(declare-fun p41() Bool)
(declare-fun p119() Bool)
(declare-fun p112() Bool)
(declare-fun p2() Bool)
(declare-fun p37() Bool)
(declare-fun p65() Bool)
(declare-fun p14() Bool)
(declare-fun p9() Bool)
(declare-fun p78() Bool)
(declare-fun p35() Bool)
(declare-fun p107() Bool)
(declare-fun p97() Bool)
(declare-fun p90() Bool)
(declare-fun p94() Bool)
(declare-fun p47() Bool)
(declare-fun p25() Bool)
(declare-fun p99() Bool)
(declare-fun p106() Bool)
(declare-fun p33() Bool)
(declare-fun p71() Bool)
(declare-fun p0() Bool)
(declare-fun p6() Bool)
(declare-fun p85() Bool)
(declare-fun p50() Bool)
(declare-fun p36() Bool)
(declare-fun p30() Bool)
(declare-fun p27() Bool)
(declare-fun p12() Bool)
(declare-fun p43() Bool)
(declare-fun p51() Bool)
(declare-fun p62() Bool)
(declare-fun p49() Bool)
(declare-fun p46() Bool)
(declare-fun p52() Bool)
(declare-fun p13() Bool)
(declare-fun p115() Bool)
(declare-fun p32() Bool)
(declare-fun p4() Bool)
(declare-fun p40() Bool)
(declare-fun p83() Bool)
(declare-fun p58() Bool)
(declare-fun p81() Bool)
(declare-fun p16() Bool)
(declare-fun p105() Bool)
(declare-fun p8() Bool)
(declare-fun p26() Bool)
(declare-fun p24() Bool)
(declare-fun p57() Bool)
(assert
(and (or (not p68) p96 p67) (or p19 (not p67) p84) (or p53 p31 p89) (or p113 (not p11) (not p69)) (or (not p23) (not p98) p15) (or p42 p77 p92) (or p113 (not p104) (not p108)) (or (not p3) (not p118) (not p108)) (or (not p5) (not p10) p92) (or p64 p18 p100) (or p72 (not p44) p98) (or p20 (not p101) (not p77)) (or p55 p11 (not p93)) (or (not p63) (not p117) p95) (or (not p22) p11 (not p1)) (or (not p59) (not p103) p108) (or p7 p21 (not p17)) (or p75 p67 p80) (or p86 (not p70) p28) (or (not p116) (not p54) p56) (or (not p87) (not p101) (not p19)) (or p91 (not p38) (not p15)) (or p39 (not p72) p110) (or (not p86) (not p61) (not p76)) (or (not p89) p79 p98) (or p74 (not p20) p102) (or (not p61) (not p7) p82) (or p45 p110 (not p48)) (or p111 (not p98) p7) (or (not p114) (not p108) (not p92)) (or (not p88) p73 p111) (or p63 p7 p76) (or p34 p98 (not p60)) (or (not p109) p29 p91) (or (not p66) (not p11) p41) (or (not p119) (not p10) (not p56)) (or (not p112) p108 p41) (or p64 (not p2) p3) (or (not p66) (not p44) (not p3)) (or p37 (not p55) (not p42)) (or (not p45) p114 (not p65)) (or (not p14) (not p117) (not p34)) (or (not p54) (not p104) (not p9)) (or p78 p87 p45) (or (not p35) (not p119) (not p107)) (or (not p21) p119 p55) (or p117 (not p111) p97) (or (not p29) (not p86) p90) (or (not p94) (not p108) p100) (or p47 p25 p99) (or p75 (not p5) p106) (or p100 p28 p21) (or (not p47) p33 p88) (or (not p72) p10 (not p35)) (or (not p38) (not p76) (not p22)) (or (not p97) p25 (not p94)) (or p82 (not p71) (not p89)) (or (not p0) (not p94) (not p117)) (or (not p6) (not p85) p106) (or p50 p76 (not p35)) (or (not p59) (not p42) (not p87)) (or p37 p22 (not p85)) (or p98 (not p85) (not p60)) (or p36 (not p80) p63) (or (not p89) (not p5) p48) (or (not p39) p82 p60) (or (not p30) p27 (not p12)) (or (not p117) (not p43) p25) (or (not p70) (not p47) p96) (or p80 (not p48) (not p22)) (or p104 (not p79) p99) (or p51 p18 p19) (or p118 p82 (not p72)) (or (not p86) (not p15) p37) (or (not p33) (not p62) p17) (or p49 (not p29) (not p69)) (or (not p20) (not p50) (not p45)) (or (not p7) (not p21) p29) (or (not p33) p97 (not p3)) (or p70 p91 p46) (or p52 p82 (not p87)) (or (not p114) (not p33) (not p78)) (or (not p84) (not p53) (not p113)) (or (not p67) p114 p14) (or p99 p34 (not p9)) (or p13 (not p85) p96) (or p10 (not p5) (not p6)) (or (not p38) p87 p114) (or p2 p85 p55) (or (not p46) (not p84) p63) (or p3 p115 (not p17)) (or p47 (not p53) p85) (or p56 (not p32) p66) (or p50 p68 (not p84)) (or (not p55) p4 p73) (or (not p6) (not p101) (not p111)) (or (not p14) (not p61) (not p17)) (or p44 (not p119) (not p28)) (or p91 (not p99) p30) (or (not p31) p9 p93) (or p21 p46 (not p65)) (or (not p108) (not p92) (not p40)) (or (not p112) p109 (not p75)) (or (not p115) p5 (not p68)) (or (not p76) p117 (not p60)) (or (not p38) p29 (not p89)) (or p30 (not p107) p119) (or (not p20) (not p83) (not p115)) (or (not p37) p80 (not p32)) (or (not p66) p108 (not p79)) (or (not p22) p30 p10) (or (not p52) p107 (not p12)) (or (not p118) p75 (not p85)) (or p61 p63 p117) (or p70 p27 (not p53)) (or (not p34) (not p92) (not p15)) (or p13 p5 p73) (or p12 (not p116) (not p91)) (or p117 p111 p11) (or p27 (not p58) p67) (or (not p4) (not p93) p112) (or p81 (not p59) (not p16)) (or p95 p21 p117) (or p49 p61 p1) (or p35 p86 (not p100)) (or p45 p15 (not p75)) (or p67 p4 p90) (or (not p106) (not p2) (not p7)) (or (not p13) p14 p60) (or p98 p49 p70) (or p23 (not p37) (not p115)) (or p87 (not p89) (not p94)) (or (not p89) p77 p104) (or (not p82) p33 (not p78)) (or (not p14) p34 (not p4)) (or (not p80) (not p27) (not p56)) (or p114 (not p64) (not p65)) (or p7 (not p25) (not p106)) (or (not p64) (not p34) (not p78)) (or (not p16) (not p103) (not p9)) (or (not p74) p118 p119) (or p65 (not p103) p15) (or p0 p16 p99) (or p114 (not p112) p105) (or p104 p50 (not p60)) (or (not p23) p118 (not p36)) (or p43 (not p58) (not p2)) (or p7 p94 p67) (or (not p114) (not p39) p37) (or p75 (not p98) p88) (or p116 p86 (not p8)) (or p75 (not p22) p5) (or p61 p35 (not p40)) (or (not p5) (not p47) (not p13)) (or p94 p72 p104) (or (not p67) p63 (not p93)) (or p81 (not p26) (not p72)) (or p11 p53 (not p79)) (or (not p81) p16 p17) (or p53 p3 (not p116)) (or (not p48) (not p75) p69) (or p114 p42 p110) (or p6 (not p96) p22) (or (not p4) (not p15) p89) (or (not p119) p40 p48) (or (not p69) p19 p52) (or p69 p90 p92) (or p109 (not p112) p20) (or p77 (not p7) p59) (or p16 p24 (not p61)) (or p115 p56 (not p44)) (or p107 p19 (not p29)) (or p111 (not p71) p95) (or (not p56) p19 (not p81)) (or (not p2) (not p36) (not p105)) (or p100 p8 p112) (or p37 p116 p86) (or (not p114) (not p60) (not p48)) (or (not p9) p95 p99) (or p14 (not p75) p32) (or p111 (not p67) (not p88)) (or (not p13) (not p100) p50) (or p11 p46 (not p98)) (or (not p113) p47 p85) (or (not p80) p66 p3) (or p85 p44 p96) (or p100 p88 p79) (or p34 (not p112) (not p115)) (or (not p44) p55 (not p99)) (or p38 (not p33) (not p3)) (or p110 (not p12) p116) (or p73 p36 p89) (or p118 p57 (not p56)) (or (not p99) (not p55) (not p32)) (or (not p114) (not p6) (not p76)) (or (not p31) p86 (not p98)) (or (not p97) p84 (not p46)) (or p113 p31 p30) (or (not p59) (not p66) (not p118)) (or p16 (not p80) p35) (or (not p104) (not p62) p94) (or p83 p29 (not p36)) (or p20 (not p64) p43) (or (not p97) (not p108) (not p57)) (or p56 (not p63) (not p75)) (or p11 p3 p83) (or (not p33) (not p6) (not p80)) (or (not p13) p46 (not p54)) (or p66 p14 p17) (or (not p3) (not p19) p68) (or (not p52) p77 (not p45)) (or (not p26) (not p64) (not p24)) (or p14 (not p14) p47) (or p46 (not p45) (not p14)) (or (not p78) (not p60) p76) (or (not p74) p42 (not p54)) (or p34 (not p79) (not p5)) (or p63 (not p14) (not p23)) (or p70 p32 (not p117)) (or (not p1) (not p4) p64) (or (not p42) (not p18) p56) (or (not p36) p8 (not p52)) (or (not p30) (not p100) p78) (or (not p83) p106 p114) (or p49 p52 p81) (or (not p31) p99 p48) (or p81 (not p60) (not p81)) (or p14 p108 p52) (or (not p12) p44 p29) (or (not p34) p112 p103) (or p74 (not p12) p102) (or (not p35) (not p24) (not p89)) (or p39 p1 (not p94)) (or p77 (not p22) (not p13)) (or p62 p23 (not p48)) (or p28 (not p13) p10) (or (not p89) p82 p24) (or (not p6) (not p27) p6) (or p81 (not p75) (not p100)) (or (not p3) p14 p86) (or p42 (not p81) p112) (or p45 p89 (not p60)) (or p94 p73 p68) (or (not p47) p24 (not p40)) (or p60 (not p59) p14) (or p18 p42 (not p47)) (or p57 p98 p113) (or p59 p73 p61) (or (not p95) p86 (not p42)) (or p4 (not p48) (not p61)) (or (not p103) p20 (not p0)) (or (not p12) (not p14) p112) (or p53 (not p29) p36) (or (not p40) (not p109) p22) (or (not p101) p4 (not p36)) (or p118 p72 p116) (or (not p29) p64 (not p84)) (or p2 p100 (not p107)) (or p70 p117 p89) (or (not p85) (not p34) p109) (or p101 (not p101) (not p49)) (or (not p44) p83 (not p100)) (or (not p62) p13 (not p81)) (or p83 p34 p35) (or (not p8) (not p115) (not p40)) (or p26 (not p86) (not p3)) (or p69 p8 p111) (or p19 (not p115) (not p100)) (or p14 (not p13) p74) (or p38 (not p104) (not p73)) (or p54 (not p77) (not p17)) (or p8 (not p92) p77) (or p106 p92 (not p23)) (or p45 (not p80) (not p76)) (or (not p45) p70 p28) (or p82 (not p32) (not p13)) (or (not p78) p86 p88) (or p53 (not p45) (not p26)) (or p47 p85 (not p8)) (or p14 (not p98) (not p53)) (or p82 p19 p86) (or (not p43) p56 (not p77)) (or p19 (not p41) (not p74)) (or p56 (not p27) p79) (or (not p83) p22 (not p58)) (or (not p30) (not p37) p101) (or p95 p103 (not p96)) (or p96 (not p9) (not p98)) (or p39 (not p41) (not p6)) (or p90 p61 p35) (or p22 (not p109) (not p64)) (or (not p87) p15 (not p56)) (or p118 (not p41) p80) (or (not p3) (not p35) p24) (or (not p29) (not p97) p42) (or (not p20) (not p108) (not p84)) (or (not p52) (not p9) (not p62)) (or (not p61) (not p56) (not p106)) (or (not p21) p96 (not p108)) (or p7 p66 p99) (or p75 (not p107) (not p28)) (or (not p37) (not p117) p62) (or (not p75) (not p114) p92) (or p9 p117 p70) (or (not p93) p98 p9) (or p119 (not p5) p64) (or (not p68) p113 p112) (or (not p54) (not p116) (not p81)) (or (not p30) (not p115) p57) (or (not p4) (not p13) (not p91)) (or (not p13) (not p113) (not p10)) (or (not p104) (not p87) (not p50)) (or (not p15) p73 (not p37)) (or p54 (not p112) p78) (or p38 p67 (not p88)) (or (not p113) (not p30) (not p41)) (or p38 (not p16) (not p110)) (or p66 p91 (not p68)) (or p87 p51 (not p104)) (or (not p108) (not p43) (not p81)) (or (not p51) (not p74) p49) (or (not p25) p90 (not p14)) (or p91 (not p89) (not p81)) (or (not p24) (not p61) (not p56)) (or p45 p110 p91) (or (not p68) p68 (not p0)) (or (not p74) p53 p85) (or (not p106) (not p1) p17) (or (not p2) (not p103) (not p37)) (or p107 p106 p94) (or (not p19) (not p82) (not p74)) (or (not p118) (not p37) (not p107)) (or (not p60) p65 p10) (or (not p41) p95 p18) (or (not p94) (not p36) p40) (or p42 (not p67) p45) (or (not p16) p30 p84) (or p110 p28 (not p100)) (or (not p15) (not p94) p37) (or (not p103) (not p39) p57) (or (not p82) p95 p102) (or (not p49) p107 (not p37)) (or (not p63) p115 (not p109)) (or (not p29) p102 (not p97)) (or p43 (not p46) (not p28)) (or (not p41) p14 (not p33)) (or p13 p109 p110) (or (not p105) p52 (not p2)) (or p100 p64 (not p46)) (or (not p80) (not p83) (not p47)) (or (not p90) p91 p16) (or p94 (not p9) p108) (or p28 (not p104) p42) (or (not p52) (not p78) (not p111)) (or p107 p77 p41) (or (not p69) (not p17) (not p43)) (or p44 p23 (not p9)) (or (not p2) (not p83) (not p56)) (or p24 (not p75) p30) (or (not p17) p21 (not p37)) (or p84 p25 p1) (or (not p47) p110 (not p3)) (or p18 (not p67) p6) (or p52 (not p57) (not p40)) (or (not p101) p25 p57) (or (not p109) p49 p57) (or (not p49) p9 p114) (or p87 p100 (not p55)) (or (not p86) p13 (not p115)) (or (not p71) p57 (not p13)) (or (not p67) p32 (not p111)) (or (not p114) (not p54) (not p73)) (or p76 p36 p35) (or p42 p93 p6) (or p96 p45 (not p116)) (or (not p9) p43 p54) (or (not p50) p100 p109) (or p81 p60 (not p19)) (or (not p83) (not p20) (not p39)) (or p6 p9 p86) (or (not p56) p113 p116) (or p61 p74 p68) (or (not p76) (not p107) p74) (or (not p89) p112 (not p103)) (or p111 p39 p14) (or (not p6) (not p79) (not p66)) (or (not p49) p36 (not p44)) (or (not p65) (not p118) (not p3)) (or (not p105) p17 p12) (or p9 (not p115) (not p27)) (or p20 (not p80) (not p66)) (or (not p21) p84 (not p4)) (or (not p86) (not p58) (not p6)) (or p6 (not p17) (not p118)) (or p110 p23 (not p28)) (or p99 p106 (not p22)) (or (not p58) p113 p37) (or (not p45) (not p8) (not p54)) (or p113 p27 (not p52)) (or (not p116) (not p19) (not p7)) (or p12 (not p83) (not p42)) (or p62 (not p112) p13) (or (not p11) p91 (not p26)) (or (not p26) p69 (not p28)) (or p2 p48 (not p115)) (or p106 p119 (not p47)) (or (not p30) p28 p3) (or p16 (not p48) (not p43)) (or p47 (not p40) p61) (or (not p34) p71 p33) (or (not p85) p35 (not p1)) (or p36 (not p17) (not p1)) (or p45 p31 p28) (or (not p67) p51 p117) (or p65 (not p87) (not p84)) (or (not p2) (not p26) p23) (or p63 (not p27) p103) (or (not p116) p23 (not p115)) (or (not p18) p27 (not p86)) (or (not p112) p65 (not p77)) (or (not p86) p63 p40) (or (not p61) p41 p47) (or (not p90) p113 p44) (or p74 (not p11) (not p19)) (or (not p93) (not p96) p41) (or (not p84) (not p16) p90) (or (not p99) p17 p8) (or p74 p11 p40) (or (not p32) p5 p17) (or p29 p78 (not p46)) (or (not p65) p8 p12) (or (not p93) p20 p42) (or (not p14) (not p75) p13) (or p102 (not p5) p66) (or (not p43) (not p4) (not p26)) (or (not p20) p103 p32) (or (not p14) p23 (not p106)) (or (not p61) p60 (not p15)) (or p59 (not p69) (not p31)) (or p61 (not p42) p14) (or (not p95) p109 (not p112)) (or (not p96) p68 p6) (or (not p69) p95 p30) (or p38 (not p55) (not p6)) (or (not p113) (not p38) (not p3)) (or p16 p107 (not p15)) (or p20 p99 (not p113)) (or (not p46) p77 (not p63)) (or (not p48) (not p55) (not p50)) (or (not p26) (not p91) p31) (or (not p17) (not p5) p42) (or (not p95) (not p54) p86) (or (not p73) p29 (not p34)) (or (not p90) (not p64) p29) (or (not p13) p104 p16) (or (not p68) p100 p22) (or (not p28) (not p61) (not p60)) (or p20 p13 p114) (or (not p62) (not p45) (not p70)) (or (not p10) (not p9) (not p60)) (or p81 p79 p25) (or (not p33) (not p74) p36) (or p79 (not p66) p102) (or p30 p19 (not p35)) (or (not p6) p115 p80) (or (not p60) p51 (not p55)) (or (not p39) p71 (not p26)) (or p115 (not p49) p104) (or p110 (not p60) p6) (or p40 p0 p96) (or (not p36) p34 p51) (or p46 p94 (not p115)) (or p21 (not p89) (not p107)) (or p102 p45 (not p101)) (or (not p105) (not p51) p67) (or (not p32) (not p32) p59) (or p47 (not p91) p20) (or (not p7) (not p37) p93) (or p67 p43 (not p5)) (or (not p63) (not p108) p44) (or p48 p97 (not p52)) (or (not p91) (not p111) p24) (or (not p58) p47 p13) (or p9 (not p0) (not p16)) (or (not p44) (not p63) p93) (or (not p92) p45 (not p12)) (or (not p91) (not p59) p35) (or p46 (not p13) (not p7)) (or (not p32) (not p118) (not p52)) (or (not p27) p85 (not p12)) (or (not p34) (not p72) p105) (or (not p33) p80 (not p28)) (or (not p114) p21 p99) (or p94 (not p101) (not p86)) (or p53 p95 p20) (or p43 p60 p38) (or p43 p45 p71) (or (not p116) p40 (not p40)) (or p116 p95 (not p55)) (or (not p92) (not p55) p31) (or (not p44) p11 (not p8)) (or (not p13) (not p32) p78) (or (not p61) p81 (not p107)) (or (not p78) (not p87) (not p5)) (or (not p22) (not p118) (not p80)) (or p105 (not p103) p4) (or (not p92) p60 (not p60)) (or p55 p23 p114) (or (not p34) p81 p28) (or (not p76) p37 (not p12)) (or p24 p20 (not p77)) (or p82 p42 (not p17)) (or p48 p35 p87) (or (not p100) p47 (not p116)) (or (not p65) (not p84) p35) (or (not p59) (not p12) (not p16)) (or p101 (not p10) p110) (or (not p96) (not p10) (not p118)) (or p62 p92 (not p88)) (or p22 p41 p108) (or (not p21) p110 (not p62)) (or (not p45) p36 p99) (or p75 (not p110) (not p86)) (or (not p67) p99 (not p61)) (or p111 (not p74) p80) (or p87 (not p6) (not p101)) (or (not p72) p113 p116) (or (not p7) (not p4) p40) (or p31 p78 (not p78)) (or (not p25) (not p39) p97) (or (not p37) p48 (not p77)) (or (not p82) p20 (not p35)) (or (not p30) (not p112) (not p111)) (or p34 (not p87) p31) (or p113 (not p28) p116) (or (not p88) (not p32) p72) (or p5 p113 (not p68)) (or p45 p37 (not p15)) (or (not p27) (not p69) p44) (or (not p86) p65 p80) (or (not p96) p100 (not p63)) (or p107 p56 (not p56)) (or p96 (not p8) (not p52)) (or p59 p13 (not p99)) (or p95 (not p58) p41) (or (not p32) (not p79) (not p110)) (or p43 p41 (not p48)) (or (not p80) (not p62) (not p114)) (or (not p95) p97 p49) (or (not p104) p14 p79) (or (not p3) p105 p91) (or p94 p84 p89) (or (not p78) p59 (not p100)) (or (not p54) (not p21) (not p60)) (or p30 p74 (not p105)) (or (not p27) p15 p28) (or p101 (not p66) p111) (or p71 (not p62) (not p64)) (or p43 p62 p73) (or p16 p5 (not p100)) (or p118 p42 p33) (or (not p0) (not p75) p63) (or p118 p47 (not p56)) (or p97 p5 (not p38)) (or (not p7) (not p47) p4) (or p105 p57 p85) (or p13 p1 p57) (or (not p49) p39 p104) (or (not p103) (not p14) (not p28)) (or p13 (not p93) p112) (or p105 p59 p56) (or (not p10) (not p26) p41) (or p108 p72 (not p32)) (or (not p49) p89 (not p28)) (or (not p30) (not p36) p54) (or (not p6) (not p97) (not p37)) (or p78 (not p57) p108) (or (not p101) (not p107) p34) (or p115 p18 (not p0)) (or p69 p65 p33) (or (not p5) p104 p33) (or (not p82) p34 (not p37)) (or p93 (not p60) p88) (or (not p91) p98 p33) (or p23 p55 (not p51)) (or p25 p38 (not p1)) (or (not p6) (not p1) p38) (or p109 p32 p107) (or p30 p50 (not p73)) (or (not p36) (not p11) p113) (or p116 p57 p87) (or p32 (not p29) (not p70)) (or p22 p52 p36) (or p20 p9 p12) (or (not p28) p80 p75) (or p54 p70 (not p93)) (or (not p106) p69 (not p62)) (or p64 (not p75) (not p53)) (or p94 (not p50) (not p94)))
)
(check-sat)
(get-model)
